
Log started (V11.0.0) Mon Apr 14 10:34:32 2008

Tried aggregator 1 time.
Reduced MIP has 540 rows, 20001 columns, and 40040 nonzeros.
Presolve time =    0.16 sec.
Clique table members: 500.
MIP emphasis: balance optimality and feasibility.
MIP search method: dynamic search.
Parallel mode: none, using 1 thread.
Root relaxation solution time =    0.73 sec.

        Nodes                                         Cuts/
   Node  Left     Objective  IInf  Best Integer     Best Node    ItCnt     Gap

*     0+    0                        25624.0000       37.6984     1202   99.85%
*     0+    0                           44.0000       37.6984     1202   14.32%
      0     0       38.0000    63       44.0000      Fract: 6     1215   13.64%
*     0+    0                           43.0000       38.0000     1215   11.63%
*     0+    0                           42.0000       38.0000     1215    9.52%
*     0+    0                           41.0000       38.0000     1215    7.32%

Repeating presolve.
Tried aggregator 1 time.
MIP Presolve eliminated 0 rows and 12091 columns.
Reduced MIP has 540 rows, 7910 columns, and 15858 nonzeros.
Tried aggregator 1 time.
Represolve time =    0.44 sec.
Clique table members: 963.
MIP emphasis: balance optimality and feasibility.
MIP search method: dynamic search.
Parallel mode: none, using 1 thread.
Root relaxation solution time =    0.23 sec.

        Nodes                                         Cuts/
   Node  Left     Objective  IInf  Best Integer     Best Node    ItCnt     Gap

      0     0       38.0000    77       41.0000       38.0000      914    7.32%
*     0+    0                           40.0000       38.0000      914    5.00%
      0     2       38.0000    77       40.0000       38.0000      914    5.00%
    100    89       39.0000    53       40.0000       38.0000     6257    5.00%
    200   173       39.0000    53       40.0000       38.0000    13658    5.00%
    300   247    infeasible             40.0000       38.0000    22626    5.00%
    400   326       39.0000    63       40.0000       38.0000    30488    5.00%
    500   402       39.0000    81       40.0000       38.0000    41848    5.00%
    600   431       39.0000    63       40.0000       38.0000    50414    5.00%
    700   443       39.0000    66       40.0000       38.0000    58830    5.00%
    800   453       39.0000    56       40.0000       38.0000    70598    5.00%
    900   451       39.0000    66       40.0000       38.0000    82824    5.00%
   1000   469       39.0000    37       40.0000       38.0000    89579    5.00%
Elapsed time =  67.42 sec. (tree size =  4.79 MB, solutions = 6)
   1100   519       39.0000    62       40.0000       38.0000    97803    5.00%
   1200   606       39.0000    62       40.0000       38.0000   106774    5.00%
   1300   694       39.0000    55       40.0000       38.0000   115463    5.00%
   1400   777       38.0000   134       40.0000       38.0000   124900    5.00%
   1500   861       38.0588   198       40.0000       38.0000   134469    5.00%
   1600   955       39.0000    67       40.0000       38.0000   141459    5.00%
   1700  1046       39.0000    83       40.0000       38.0000   150454    5.00%
   1800  1137       39.0000    59       40.0000       38.0000   158533    5.00%
   1900  1222       39.0000    39       40.0000       38.0000   169690    5.00%
   2000  1315       39.0000    20       40.0000       38.0000   174816    5.00%
Elapsed time = 116.81 sec. (tree size = 15.70 MB, solutions = 6)
   2100  1415       39.0000    46       40.0000       38.0000   178057    5.00%
   2200  1503       39.0000    42       40.0000       38.0000   190474    5.00%
   2300  1590       39.0000    63       40.0000       38.0000   199165    5.00%
   2400  1683       39.0000    57       40.0000       38.0000   206991    5.00%
   2500  1778       39.0000    49       40.0000       38.0000   211330    5.00%
   2600  1870       39.0000    73       40.0000       38.0000   223862    5.00%
   2700  1958       39.0000    71       40.0000       38.0000   237381    5.00%
   2800  2034       39.0000    66       40.0000       38.0000   249293    5.00%
   2900  2118       39.0000    54       40.0000       38.0000   262408    5.00%
   3000  2198       39.0000    45       40.0000       38.0000   272136    5.00%
Elapsed time = 174.67 sec. (tree size = 28.06 MB, solutions = 6)
   3100  2291       39.0000    65       40.0000       38.0000   278054    5.00%
   3200  2386       39.0000    62       40.0000       38.0000   284360    5.00%
   3300  2478       39.0000    49       40.0000       38.0000   296278    5.00%
   3400  2567       39.0000    57       40.0000       38.0000   304143    5.00%
   3500  2662       39.0000    72       40.0000       38.0000   311233    5.00%
   3600  2757       39.0000    47       40.0000       38.0000   316285    5.00%
   3700  2845       39.0000    36       40.0000       38.0000   324900    5.00%
   3800  2945       39.0000    58       40.0000       38.0000   328565    5.00%
   3900  3029    infeasible             40.0000       38.0000   341954    5.00%
   4000  3124       39.0000    72       40.0000       38.0000   348992    5.00%
Elapsed time = 218.17 sec. (tree size = 42.05 MB, solutions = 6)
   4100  3213       39.0000    60       40.0000       38.0000   356615    5.00%
   4200  3306       39.0000    80       40.0000       38.0000   364331    5.00%
   4300  3397       39.0000    43       40.0000       38.0000   371162    5.00%
   4400  3497       39.0000    49       40.0000       38.0000   378181    5.00%
   4500  3577       38.0000   129       40.0000       38.0000   391739    5.00%
   4600  3667       39.0000    43       40.0000       38.0000   400189    5.00%
   4700  3767       39.0000    55       40.0000       38.0000   406881    5.00%
   4800  3854       39.0000    53       40.0000       38.0000   417193    5.00%
   4900  3945       39.0000    42       40.0000       38.0000   424698    5.00%
   5000  4043       39.0000    41       40.0000       38.0000   429289    5.00%
Elapsed time = 263.14 sec. (tree size = 56.76 MB, solutions = 6)
   5100  4128       39.0000   119       40.0000       38.0000   440132    5.00%
   5200  4223       39.0000    53       40.0000       38.0000   446077    5.00%
   5300  4316       39.0000    45       40.0000       38.0000   451633    5.00%
   5400  4416       39.0000    61       40.0000       38.0000   456805    5.00%
   5500  4498       39.0000    68       40.0000       38.0000   470362    5.00%
   5600  4578       39.0000    57       40.0000       38.0000   480276    5.00%
   5700  4678       39.0000    61       40.0000       38.0000   487950    5.00%
   5800  4761       38.0000   123       40.0000       38.0000   498294    5.00%
   5900  4855       39.0000    64       40.0000       38.0000   505846    5.00%
   6000  4947       39.0000    80       40.0000       38.0000   512984    5.00%
Elapsed time = 309.91 sec. (tree size = 71.87 MB, solutions = 6)
   6100  5047       39.0000    57       40.0000       38.0000   516004    5.00%
   6200  5130       39.0000    72       40.0000       38.0000   528647    5.00%
   6300  5221       39.0000    64       40.0000       38.0000   534073    5.00%
   6400  5316       39.0000    43       40.0000       38.0000   538965    5.00%
   6500  5410       38.0000   111       40.0000       38.0000   546788    5.00%
*  6509+  485                           39.0000       38.0000   547330    2.56%
   6600   440    infeasible             39.0000       38.0000   676624    2.56%
   6700   340    infeasible             39.0000       38.0000   909846    2.56%
   6800   302    infeasible             39.0000       38.0000  1086177    2.56%
   6900   202    infeasible             39.0000       38.0000  1336400    2.56%
   7000   110    infeasible             39.0000       38.0000  1597754    2.56%
Elapsed time = 968.95 sec. (tree size =  1.96 MB, solutions = 7)
   7100    20    infeasible             39.0000       38.0000  1847773    2.56%

Cover cuts applied:  998
Mixed integer rounding cuts applied:  7
Gomory fractional cuts applied:  4

Solution pool: 7 solutions saved.

MIP - Integer optimal solution:  Objective = 3.9000000000e+001
Solution time = 1124.58 sec.  Iterations = 1889492  Nodes = 7123


Incumbent solution
Variable Name           Solution Value
Cmax                         39.000000
X_1_38                        1.000000
X_2_6                         1.000000
X_3_17                        1.000000
X_4_16                        1.000000
X_5_18                        1.000000
X_6_21                        1.000000
X_7_22                        1.000000
X_8_7                         1.000000
X_9_30                        1.000000
X_10_29                       1.000000
X_11_23                       1.000000
X_12_12                       1.000000
X_13_29                       1.000000
X_14_5                        1.000000
X_15_40                       1.000000
X_16_40                       1.000000
X_17_35                       1.000000
X_18_35                       1.000000
X_19_25                       1.000000
X_20_34                       1.000000
X_21_3                        1.000000
X_22_15                       1.000000
X_23_3                        1.000000
X_24_40                       1.000000
X_25_39                       1.000000
X_26_35                       1.000000
X_27_6                        1.000000
X_28_29                       1.000000
X_29_27                       1.000000
X_30_35                       1.000000
X_31_3                        1.000000
X_32_39                       1.000000
X_33_30                       1.000000
X_34_14                       1.000000
X_35_16                       1.000000
X_36_24                       1.000000
X_37_12                       1.000000
X_38_32                       1.000000
X_39_5                        1.000000
X_40_17                       1.000000
X_41_8                        1.000000
X_42_32                       1.000000
X_43_22                       1.000000
X_44_38                       1.000000
X_45_22                       1.000000
X_46_8                        1.000000
X_47_10                       1.000000
X_48_26                       1.000000
X_49_24                       1.000000
X_50_23                       1.000000
X_51_17                       1.000000
X_52_27                       1.000000
X_53_9                        1.000000
X_54_28                       1.000000
X_55_3                        1.000000
X_56_16                       1.000000
X_57_2                        1.000000
X_58_40                       1.000000
X_59_5                        1.000000
X_60_8                        1.000000
X_61_35                       1.000000
X_62_36                       1.000000
X_63_11                       1.000000
X_64_31                       1.000000
X_65_31                       1.000000
X_66_40                       1.000000
X_67_15                       1.000000
X_68_2                        1.000000
X_69_35                       1.000000
X_70_4                        1.000000
X_71_26                       1.000000
X_72_40                       1.000000
X_73_26                       1.000000
X_74_27                       1.000000
X_75_11                       1.000000
X_76_5                        1.000000
X_77_2                        1.000000
X_78_1                        1.000000
X_79_36                       1.000000
X_80_24                       1.000000
X_81_38                       1.000000
X_82_6                        1.000000
X_83_24                       1.000000
X_84_9                        1.000000
X_85_1                        1.000000
X_86_14                       1.000000
X_87_39                       1.000000
X_88_19                       1.000000
X_89_30                       1.000000
X_90_16                       1.000000
X_91_10                       1.000000
X_92_20                       1.000000
X_93_4                        1.000000
X_94_15                       1.000000
X_95_24                       1.000000
X_96_3                        1.000000
X_97_17                       1.000000
X_98_4                        1.000000
X_99_22                       1.000000
X_100_4                       1.000000
X_101_30                      1.000000
X_102_40                      1.000000
X_103_16                      1.000000
X_104_21                      1.000000
X_105_11                      1.000000
X_106_34                      1.000000
X_107_19                      1.000000
X_108_8                       1.000000
X_109_20                      1.000000
X_110_8                       1.000000
X_111_12                      1.000000
X_112_29                      1.000000
X_113_8                       1.000000
X_114_38                      1.000000
X_115_14                      1.000000
X_116_2                       1.000000
X_117_35                      1.000000
X_118_22                      1.000000
X_119_17                      1.000000
X_120_21                      1.000000
X_121_18                      1.000000
X_122_11                      1.000000
X_123_9                       1.000000
X_124_22                      1.000000
X_125_26                      1.000000
X_126_15                      1.000000
X_127_26                      1.000000
X_128_25                      1.000000
X_129_2                       1.000000
X_130_17                      1.000000
X_131_22                      1.000000
X_132_8                       1.000000
X_133_27                      1.000000
X_134_36                      1.000000
X_135_25                      1.000000
X_136_39                      1.000000
X_137_31                      1.000000
X_138_21                      1.000000
X_139_7                       1.000000
X_140_31                      1.000000
X_141_1                       1.000000
X_142_13                      1.000000
X_143_8                       1.000000
X_144_15                      1.000000
X_145_21                      1.000000
X_146_26                      1.000000
X_147_37                      1.000000
X_148_28                      1.000000
X_149_11                      1.000000
X_150_36                      1.000000
X_151_35                      1.000000
X_152_15                      1.000000
X_153_4                       1.000000
X_154_2                       1.000000
X_155_36                      1.000000
X_156_27                      1.000000
X_157_29                      1.000000
X_158_25                      1.000000
X_159_15                      1.000000
X_160_22                      1.000000
X_161_19                      1.000000
X_162_23                      1.000000
X_163_18                      1.000000
X_164_26                      1.000000
X_165_27                      1.000000
X_166_33                      1.000000
X_167_20                      1.000000
X_168_28                      1.000000
X_169_33                      1.000000
X_170_37                      1.000000
X_171_31                      1.000000
X_172_27                      1.000000
X_173_13                      1.000000
X_174_14                      1.000000
X_175_21                      1.000000
X_176_13                      1.000000
X_177_16                      1.000000
X_178_27                      1.000000
X_179_36                      1.000000
X_180_5                       1.000000
X_181_34                      1.000000
X_182_17                      1.000000
X_183_13                      1.000000
X_184_20                      1.000000
X_185_35                      1.000000
X_186_16                      1.000000
X_187_24                      1.000000
X_188_4                       1.000000
X_189_21                      1.000000
X_190_10                      1.000000
X_191_13                      1.000000
X_192_20                      1.000000
X_193_20                      1.000000
X_194_39                      1.000000
X_195_18                      1.000000
X_196_35                      1.000000
X_197_24                      1.000000
X_198_25                      1.000000
X_199_19                      1.000000
X_200_9                       1.000000
X_201_23                      1.000000
X_202_12                      1.000000
X_203_31                      1.000000
X_204_2                       1.000000
X_205_24                      1.000000
X_206_8                       1.000000
X_207_21                      1.000000
X_208_26                      1.000000
X_209_16                      1.000000
X_210_20                      1.000000
X_211_31                      1.000000
X_212_26                      1.000000
X_213_8                       1.000000
X_214_24                      1.000000
X_215_18                      1.000000
X_216_4                       1.000000
X_217_12                      1.000000
X_218_7                       1.000000
X_219_28                      1.000000
X_220_33                      1.000000
X_221_14                      1.000000
X_222_7                       1.000000
X_223_3                       1.000000
X_224_19                      1.000000
X_225_28                      1.000000
X_226_30                      1.000000
X_227_21                      1.000000
X_228_30                      1.000000
X_229_37                      1.000000
X_230_22                      1.000000
X_231_16                      1.000000
X_232_9                       1.000000
X_233_30                      1.000000
X_234_7                       1.000000
X_235_8                       1.000000
X_236_24                      1.000000
X_237_29                      1.000000
X_238_28                      1.000000
X_239_6                       1.000000
X_240_11                      1.000000
X_241_7                       1.000000
X_242_36                      1.000000
X_243_37                      1.000000
X_244_27                      1.000000
X_245_4                       1.000000
X_246_12                      1.000000
X_247_13                      1.000000
X_248_35                      1.000000
X_249_11                      1.000000
X_250_40                      1.000000
X_251_35                      1.000000
X_252_22                      1.000000
X_253_23                      1.000000
X_254_39                      1.000000
X_255_33                      1.000000
X_256_40                      1.000000
X_257_37                      1.000000
X_258_18                      1.000000
X_259_26                      1.000000
X_260_30                      1.000000
X_261_30                      1.000000
X_262_33                      1.000000
X_263_34                      1.000000
X_264_9                       1.000000
X_265_36                      1.000000
X_266_38                      1.000000
X_267_5                       1.000000
X_268_27                      1.000000
X_269_23                      1.000000
X_270_12                      1.000000
X_271_12                      1.000000
X_272_39                      1.000000
X_273_38                      1.000000
X_274_14                      1.000000
X_275_17                      1.000000
X_276_35                      1.000000
X_277_27                      1.000000
X_278_1                       1.000000
X_279_16                      1.000000
X_280_18                      1.000000
X_281_26                      1.000000
X_282_5                       1.000000
X_283_23                      1.000000
X_284_39                      1.000000
X_285_9                       1.000000
X_286_28                      1.000000
X_287_2                       1.000000
X_288_21                      1.000000
X_289_4                       1.000000
X_290_13                      1.000000
X_291_26                      1.000000
X_292_33                      1.000000
X_293_21                      1.000000
X_294_18                      1.000000
X_295_19                      1.000000
X_296_20                      1.000000
X_297_19                      1.000000
X_298_33                      1.000000
X_299_11                      1.000000
X_300_8                       1.000000
X_301_20                      1.000000
X_302_19                      1.000000
X_303_27                      1.000000
X_304_31                      1.000000
X_305_27                      1.000000
X_306_34                      1.000000
X_307_32                      1.000000
X_308_3                       1.000000
X_309_29                      1.000000
X_310_5                       1.000000
X_311_32                      1.000000
X_312_7                       1.000000
X_313_19                      1.000000
X_314_14                      1.000000
X_315_13                      1.000000
X_316_39                      1.000000
X_317_13                      1.000000
X_318_24                      1.000000
X_319_22                      1.000000
X_320_6                       1.000000
X_321_34                      1.000000
X_322_36                      1.000000
X_323_39                      1.000000
X_324_32                      1.000000
X_325_30                      1.000000
X_326_39                      1.000000
X_327_37                      1.000000
X_328_29                      1.000000
X_329_4                       1.000000
X_330_14                      1.000000
X_331_20                      1.000000
X_332_8                       1.000000
X_333_30                      1.000000
X_334_25                      1.000000
X_335_9                       1.000000
X_336_3                       1.000000
X_337_33                      1.000000
X_338_28                      1.000000
X_339_18                      1.000000
X_340_30                      1.000000
X_341_19                      1.000000
X_342_37                      1.000000
X_343_6                       1.000000
X_344_25                      1.000000
X_345_10                      1.000000
X_346_35                      1.000000
X_347_13                      1.000000
X_348_22                      1.000000
X_349_24                      1.000000
X_350_38                      1.000000
X_351_2                       1.000000
X_352_10                      1.000000
X_353_13                      1.000000
X_354_20                      1.000000
X_355_23                      1.000000
X_356_2                       1.000000
X_357_19                      1.000000
X_358_21                      1.000000
X_359_19                      1.000000
X_360_29                      1.000000
X_361_1                       1.000000
X_362_8                       1.000000
X_363_38                      1.000000
X_364_22                      1.000000
X_365_19                      1.000000
X_366_9                       1.000000
X_367_14                      1.000000
X_368_30                      1.000000
X_369_31                      1.000000
X_370_10                      1.000000
X_371_34                      1.000000
X_372_18                      1.000000
X_373_3                       1.000000
X_374_28                      1.000000
X_375_4                       1.000000
X_376_37                      1.000000
X_377_17                      1.000000
X_378_36                      1.000000
X_379_19                      1.000000
X_380_2                       1.000000
X_381_12                      1.000000
X_382_15                      1.000000
X_383_27                      1.000000
X_384_37                      1.000000
X_385_6                       1.000000
X_386_23                      1.000000
X_387_33                      1.000000
X_388_40                      1.000000
X_389_30                      1.000000
X_390_9                       1.000000
X_391_15                      1.000000
X_392_22                      1.000000
X_393_20                      1.000000
X_394_12                      1.000000
X_395_22                      1.000000
X_396_31                      1.000000
X_397_24                      1.000000
X_398_25                      1.000000
X_399_34                      1.000000
X_400_24                      1.000000
X_401_19                      1.000000
X_402_32                      1.000000
X_403_14                      1.000000
X_404_10                      1.000000
X_405_11                      1.000000
X_406_29                      1.000000
X_407_37                      1.000000
X_408_11                      1.000000
X_409_24                      1.000000
X_410_28                      1.000000
X_411_20                      1.000000
X_412_9                       1.000000
X_413_1                       1.000000
X_414_22                      1.000000
X_415_25                      1.000000
X_416_12                      1.000000
X_417_23                      1.000000
X_418_32                      1.000000
X_419_33                      1.000000
X_420_36                      1.000000
X_421_5                       1.000000
X_422_2                       1.000000
X_423_26                      1.000000
X_424_28                      1.000000
X_425_16                      1.000000
X_426_3                       1.000000
X_427_29                      1.000000
X_428_16                      1.000000
X_429_27                      1.000000
X_430_15                      1.000000
X_431_5                       1.000000
X_432_31                      1.000000
X_433_23                      1.000000
X_434_40                      1.000000
X_435_11                      1.000000
X_436_35                      1.000000
X_437_7                       1.000000
X_438_25                      1.000000
X_439_16                      1.000000
X_440_1                       1.000000
X_441_37                      1.000000
X_442_16                      1.000000
X_443_36                      1.000000
X_444_14                      1.000000
X_445_38                      1.000000
X_446_39                      1.000000
X_447_34                      1.000000
X_448_1                       1.000000
X_449_6                       1.000000
X_450_35                      1.000000
X_451_10                      1.000000
X_452_15                      1.000000
X_453_17                      1.000000
X_454_37                      1.000000
X_455_15                      1.000000
X_456_34                      1.000000
X_457_33                      1.000000
X_458_26                      1.000000
X_459_28                      1.000000
X_460_8                       1.000000
X_461_28                      1.000000
X_462_21                      1.000000
X_463_17                      1.000000
X_464_40                      1.000000
X_465_33                      1.000000
X_466_1                       1.000000
X_467_9                       1.000000
X_468_9                       1.000000
X_469_38                      1.000000
X_470_11                      1.000000
X_471_5                       1.000000
X_472_35                      1.000000
X_473_20                      1.000000
X_474_35                      1.000000
X_475_2                       1.000000
X_476_20                      1.000000
X_477_31                      1.000000
X_478_33                      1.000000
X_479_37                      1.000000
X_480_28                      1.000000
X_481_2                       1.000000
X_482_16                      1.000000
X_483_12                      1.000000
X_484_37                      1.000000
X_485_18                      1.000000
X_486_9                       1.000000
X_487_7                       1.000000
X_488_38                      1.000000
X_489_13                      1.000000
X_490_18                      1.000000
X_491_29                      1.000000
X_492_18                      1.000000
X_493_15                      1.000000
X_494_3                       1.000000
X_495_6                       1.000000
X_496_20                      1.000000
X_497_8                       1.000000
X_498_16                      1.000000
X_499_22                      1.000000
X_500_20                      1.000000
All other variables in the range 1-20001 are 0.
